
Gurobi 10.0.2 (win64) logging started Fri Jun 21 03:40:10 2024

Set parameter LogFile to value "log/log_difficulty1_MNL_DESKTOP-S7OVCUR_9_3.txt"
Gurobi Optimizer version 10.0.2 build v10.0.2rc0 (win64)

CPU model: Intel(R) Core(TM) i7-10510U CPU @ 1.80GHz, instruction set [SSE2|AVX|AVX2]
Thread count: 4 physical cores, 8 logical processors, using up to 8 threads

Optimize a model with 2020 rows, 676 columns and 4612 nonzeros
Model fingerprint: 0x4ae1fb28
Variable types: 364 continuous, 312 integer (312 binary)
Coefficient statistics:
  Matrix range     [6e-03, 2e+02]
  Objective range  [1e+02, 6e+02]
  Bounds range     [1e+00, 1e+00]
  RHS range        [1e+00, 1e+00]
Found heuristic solution: objective -0.0000000
Presolve removed 224 rows and 104 columns
Presolve time: 0.03s
Presolved: 1796 rows, 572 columns, 4249 nonzeros
Found heuristic solution: objective 2252.0441118
Variable types: 308 continuous, 264 integer (264 binary)

Root relaxation: objective 1.584488e+04, 450 iterations, 0.02 seconds (0.00 work units)

    Nodes    |    Current Node    |     Objective Bounds      |     Work
 Expl Unexpl |  Obj  Depth IntInf | Incumbent    BestBd   Gap | It/Node Time

     0     0 15844.8839    0  158 2252.04411 15844.8839   604%     -    0s
H    0     0                    10262.897853 15844.8839  54.4%     -    0s
H    0     0                    10798.438762 15844.8839  46.7%     -    0s
H    0     0                    13962.718874 14902.5278  6.73%     -    0s
     0     0 14902.5278    0  183 13962.7189 14902.5278  6.73%     -    0s
H    0     0                    14040.695294 14902.5278  6.14%     -    0s
     0     0 14882.6385    0  190 14040.6953 14882.6385  6.00%     -    0s
     0     0 14881.7496    0  191 14040.6953 14881.7496  5.99%     -    0s
     0     0 14881.7325    0  191 14040.6953 14881.7325  5.99%     -    0s
H    0     0                    14135.277158 14881.7325  5.28%     -    0s
H    0     0                    14510.336195 14668.3140  1.09%     -    0s
     0     0 14668.3140    0  132 14510.3362 14668.3140  1.09%     -    0s
     0     0 14668.1286    0  125 14510.3362 14668.1286  1.09%     -    0s
H    0     0                    14580.306736 14668.1286  0.60%     -    0s
     0     0 14660.8852    0  131 14580.3067 14660.8852  0.55%     -    0s
     0     0 14660.8852    0  132 14580.3067 14660.8852  0.55%     -    0s
H    0     0                    14620.827402 14660.8852  0.27%     -    0s
H    0     0                    14631.564816 14660.8852  0.20%     -    0s

Cutting planes:
  Gomory: 28
  Implied bound: 19
  MIR: 40
  Flow cover: 89
  RLT: 73
  Relax-and-lift: 10
  BQP: 16

Explored 1 nodes (1531 simplex iterations) in 0.33 seconds (0.11 work units)
Thread count was 8 (of 8 available processors)

Solution count 10: 14631.6 14620.8 14580.3 ... 2252.04

Optimal solution found (tolerance 1.00e-04)
Best objective 1.463156481631e+04, best bound 1.463156481631e+04, gap 0.0000%
